c
c start with comments
c
p cnf 22 20
-7 11 -17 0
-17 16 4 0
-22 13 0
-23 19 2 0
22 18 0
-9 -4 -6 -10 0
-1 16 -18 -23 -8 0
6 12 7 0
-8 -5 -9 -5 -17 -20 0
-15 -21 0
-2 20 0
16 17 -3 0
-3 -3 1 -12 0
21 -11 0
7 -18 -20 -23 -4 0
17 -13 3 -13 0
-10 12 23 0
-16 10 0
23 5 7 0
-7 1 -18 0